c Sudoku solution
p cnf 729 0
161 0
222 0
298 0
316 0
329 0
331 0
342 0
481 0
271 0
494 0
511 0
532 0
545 0
566 0
593 0
618 0
652 0
641 0
472 0
675 0
696 0
735 0
817 0
823 0
936 0
426 0
415 0
125 0
138 0
237 0
943 0
951 0
891 0
721 0
928 0
969 0
719 0
912 0
834 0
199 0
182 0
792 0
862 0
855 0
974 0
995 0
987 0
689 0
577 0
588 0
524 0
627 0
664 0
559 0
439 0
633 0
249 0
373 0
176 0
397 0
256 0
783 0
778 0
746 0
754 0
848 0
767 0
144 0
358 0
157 0
263 0
365 0
113 0
214 0
285 0
384 0
447 0
453 0
468 0
879 0
886 0
